&inputpp
    outdir='./out/'
    prefix='GaAs',
    seedname = 'GaAs'
    irr_bz = .true.
/
